HmaxDs = 1.500000
HmaxUB_percent = 1.053770
HmaxUB_real = 5862.492832
FTnetDs = 1.500000
FTnetUB_percent = 1.965964
FTnetUB_real = 16654.977309
TIFgap = 0.200000
LimCIPF = 80.820376
SCIP version 1.1.0 [precision: 8 byte] [memory: block] [mode: optimized] [LP solver: Clp 1.8.2]
Copyright (c) 2002-2008 Konrad-Zuse-Zentrum fuer Informationstechnik Berlin (ZIB)

reading user parameter file </home/fabio/docs/hierarquia/models/scip.set>

read problem <data.N30.I1.s1.cluster1.T5.GL1.W2.TIFgap0.2.mps.gz>
============

original problem has 335 variables (170 bin, 0 int, 0 impl, 165 cont) and 142 constraints

solve problem
=============

presolving:
(round 1) 3 del vars, 3 del conss, 4 chg bounds, 0 chg sides, 40 chg coeffs, 0 upgd conss, 0 impls, 40 clqs
(round 2) 5 del vars, 3 del conss, 4 chg bounds, 1 chg sides, 40 chg coeffs, 0 upgd conss, 0 impls, 40 clqs
(round 3) 5 del vars, 3 del conss, 4 chg bounds, 3 chg sides, 40 chg coeffs, 0 upgd conss, 0 impls, 40 clqs
(round 4) 5 del vars, 4 del conss, 4 chg bounds, 3 chg sides, 40 chg coeffs, 41 upgd conss, 0 impls, 40 clqs
presolving (5 rounds):
 5 deleted vars, 4 deleted constraints, 4 tightened bounds, 0 added holes, 3 changed sides, 40 changed coefficients
 578 implications, 40 cliques
presolved problem has 330 variables (170 bin, 0 int, 0 impl, 160 cont) and 138 constraints
      1 constraints of type <knapsack>
     40 constraints of type <setppc>
     97 constraints of type <linear>
Presolving Time: 0.04

 time | node  | left  |LP iter| mem |mdpt |frac |vars |cons |ccons|cols |rows |cuts |confs|strbr|  dualbound   | primalbound  |  gap   
  0.1s|     1 |     0 |   103 | 901k|   0 |  55 | 330 | 138 | 138 | 330 | 138 |   0 |   0 |   0 | 3.314791e+01 |      --      |    Inf 
  0.2s|     1 |     0 |  1373 | 992k|   0 |  61 | 330 | 138 | 138 | 330 | 162 |  24 |   0 |   0 | 1.132841e+02 |      --      |    Inf 
  0.5s|     1 |     0 |  1669 |1067k|   0 |  62 | 330 | 138 | 138 | 330 | 188 |  50 |   0 |   0 | 4.712343e+03 |      --      |    Inf 
  0.8s|     1 |     0 |  1884 |1107k|   0 |  64 | 330 | 138 | 138 | 330 | 207 |  69 |   0 |   0 | 4.979586e+03 |      --      |    Inf 
  1.0s|     1 |     0 |  1988 |1138k|   0 |  63 | 330 | 138 | 138 | 330 | 223 |  85 |   0 |   0 | 5.292857e+03 |      --      |    Inf 
  1.3s|     1 |     0 |  2093 |1167k|   0 |  69 | 330 | 138 | 138 | 330 | 241 | 103 |   0 |   0 | 5.340505e+03 |      --      |    Inf 
  1.6s|     1 |     0 |  2249 |1210k|   0 |  78 | 330 | 138 | 138 | 330 | 268 | 130 |   0 |   0 | 5.386882e+03 |      --      |    Inf 
  1.9s|     1 |     0 |  2418 |1237k|   0 |  62 | 330 | 138 | 138 | 330 | 281 | 143 |   0 |   0 | 5.414526e+03 |      --      |    Inf 
  2.3s|     1 |     0 |  2565 |1249k|   0 |  73 | 330 | 138 | 138 | 330 | 292 | 154 |   0 |   0 | 5.441180e+03 |      --      |    Inf 
  2.8s|     1 |     0 |  2826 |1257k|   0 |  77 | 330 | 138 | 138 | 330 | 299 | 161 |   0 |   0 | 5.595630e+03 |      --      |    Inf 
  3.1s|     1 |     0 |  2943 |1266k|   0 |  76 | 330 | 138 | 138 | 330 | 308 | 170 |   0 |   0 | 5.607838e+03 |      --      |    Inf 
  3.2s|     1 |     0 |  3083 |1266k|   0 |  76 | 330 | 138 | 138 | 330 | 309 | 171 |   0 |   0 | 5.661925e+03 |      --      |    Inf 
  3.2s|     1 |     0 |  3115 |1267k|   0 |  75 | 330 | 138 | 138 | 330 | 310 | 172 |   0 |   0 | 5.663118e+03 |      --      |    Inf 
  3.2s|     1 |     0 |  3136 |1267k|   0 |  74 | 330 | 138 | 138 | 330 | 311 | 173 |   0 |   0 | 5.663773e+03 |      --      |    Inf 
  3.3s|     1 |     0 |  3151 |1267k|   0 |  76 | 330 | 138 | 138 | 330 | 312 | 174 |   0 |   0 | 5.664408e+03 |      --      |    Inf 
 time | node  | left  |LP iter| mem |mdpt |frac |vars |cons |ccons|cols |rows |cuts |confs|strbr|  dualbound   | primalbound  |  gap   
  6.3s|     1 |     2 |  3151 |1270k|   0 |  76 | 330 | 138 | 138 | 330 | 312 | 174 |   0 |  37 | 5.664408e+03 |      --      |    Inf 
 16.8s|   100 |    21 | 14507 |1347k|  14 |   - | 330 | 173 |  91 | 330 | 222 | 174 |  35 | 824 | 5.690912e+03 |      --      |    Inf 
 19.1s|   200 |    45 | 25068 |1400k|  19 |  42 | 330 | 201 | 133 | 330 | 222 | 174 |  63 | 883 | 5.702594e+03 |      --      |    Inf 
 21.9s|   300 |    53 | 35752 |1423k|  22 |   7 | 330 | 215 | 100 | 330 | 222 | 174 |  78 | 892 | 5.784392e+03 |      --      |    Inf 
 23.0s|   400 |    57 | 43543 |1459k|  22 |   - | 330 | 232 | 131 |   0 |   0 | 174 |  95 | 895 | 5.920856e+03 |      --      |    Inf 
 25.2s|   500 |    71 | 53971 |1493k|  26 |  20 | 330 | 271 | 131 | 330 | 222 | 174 | 134 | 946 | 5.920856e+03 |      --      |    Inf 
 26.6s|   600 |    82 | 62882 |1521k|  26 |   6 | 330 | 287 |  85 | 330 | 222 | 174 | 150 | 965 | 5.920856e+03 |      --      |    Inf 
 28.2s|   700 |    98 | 71547 |1562k|  26 |   - | 330 | 310 |  62 | 330 | 222 | 174 | 173 | 992 | 5.928165e+03 |      --      |    Inf 
 29.5s|   800 |   103 | 79035 |1581k|  26 |   - | 330 | 321 |  93 | 330 | 222 | 174 | 184 |1010 | 6.005443e+03 |      --      |    Inf 
 30.9s|   900 |   106 | 85998 |1599k|  26 |   - | 330 | 325 | 106 | 330 | 222 | 174 | 189 |1013 | 6.061807e+03 |      --      |    Inf 
 31.8s|  1000 |   103 | 90856 |1598k|  26 |   - | 330 | 339 |  75 | 330 | 222 | 174 | 203 |1020 | 6.097100e+03 |      --      |    Inf 
 33.0s|  1100 |   101 | 97623 |1599k|  26 |   - | 330 | 346 |  82 | 330 | 222 | 174 | 210 |1023 | 7.663842e+03 |      --      |    Inf 
 33.7s|  1200 |   100 |101805 |1601k|  26 |   - | 330 | 353 | 115 |   0 |   0 | 174 | 219 |1023 | 7.663842e+03 |      --      |    Inf 
 34.4s|  1300 |   104 |106292 |1611k|  26 |   9 | 330 | 361 |  93 | 330 | 222 | 174 | 227 |1023 | 7.663842e+03 |      --      |    Inf 
 35.2s|  1400 |    96 |110450 |1610k|  26 |   - | 330 | 363 | 110 | 330 | 222 | 174 | 229 |1040 | 7.813598e+03 |      --      |    Inf 
 time | node  | left  |LP iter| mem |mdpt |frac |vars |cons |ccons|cols |rows |cuts |confs|strbr|  dualbound   | primalbound  |  gap   
 36.5s|  1500 |   104 |116187 |1625k|  26 |   2 | 330 | 374 |  64 | 330 | 222 | 174 | 240 |1061 | 8.126046e+03 |      --      |    Inf 
 37.3s|  1600 |   116 |121039 |1643k|  26 |   4 | 330 | 378 | 134 | 330 | 222 | 174 | 244 |1069 | 8.126046e+03 |      --      |    Inf 
 38.8s|  1700 |   120 |128477 |1657k|  26 |  55 | 330 | 391 | 218 | 330 | 222 | 174 | 257 |1094 | 8.139300e+03 |      --      |    Inf 
 39.9s|  1800 |   124 |136403 |1682k|  26 |   - | 330 | 404 |  71 | 330 | 222 | 174 | 270 |1096 | 8.181543e+03 |      --      |    Inf 
 41.1s|  1900 |   122 |141029 |1689k|  26 |   - | 330 | 415 | 145 |   0 |   0 | 174 | 281 |1099 | 8.184005e+03 |      --      |    Inf 
 42.3s|  2000 |   131 |147277 |1707k|  26 |   - | 330 | 427 | 154 | 330 | 222 | 174 | 293 |1099 | 8.195343e+03 |      --      |    Inf 
 43.6s|  2100 |   125 |154261 |1702k|  26 |   - | 330 | 439 |  85 | 330 | 222 | 174 | 305 |1100 | 8.195343e+03 |      --      |    Inf 
 44.6s|  2200 |   123 |159967 |1708k|  26 |   4 | 330 | 447 |  70 | 330 | 222 | 174 | 313 |1113 | 8.201499e+03 |      --      |    Inf 
 46.2s|  2300 |   133 |168683 |1728k|  26 |   5 | 330 | 457 |  77 | 330 | 222 | 174 | 323 |1130 | 8.232858e+03 |      --      |    Inf 
 47.4s|  2400 |   123 |173417 |1723k|  26 |  19 | 330 | 471 | 145 | 330 | 222 | 174 | 338 |1154 | 8.271343e+03 |      --      |    Inf 
 49.0s|  2500 |   121 |181403 |1729k|  26 |   9 | 330 | 471 |  99 | 330 | 222 | 174 | 339 |1155 | 9.051670e+03 |      --      |    Inf 
 49.9s|  2600 |   115 |185835 |1717k|  26 |   - | 330 | 488 | 115 | 330 | 222 | 174 | 356 |1169 | 9.134773e+03 |      --      |    Inf 
 50.8s|  2700 |   117 |190385 |1726k|  26 |  19 | 330 | 496 | 130 | 330 | 222 | 174 | 364 |1169 | 9.533825e+03 |      --      |    Inf 
 51.8s|  2800 |   113 |194700 |1732k|  26 |   - | 330 | 508 | 103 | 330 | 222 | 174 | 376 |1169 | 9.551449e+03 |      --      |    Inf 
 52.7s|  2900 |    97 |199375 |1696k|  26 |   - | 330 | 519 |  74 | 330 | 222 | 174 | 387 |1169 | 9.617990e+03 |      --      |    Inf 
 time | node  | left  |LP iter| mem |mdpt |frac |vars |cons |ccons|cols |rows |cuts |confs|strbr|  dualbound   | primalbound  |  gap   
 53.5s|  3000 |    79 |202392 |1664k|  26 |   3 | 330 | 523 | 101 | 330 | 222 | 174 | 391 |1169 | 1.048658e+04 |      --      |    Inf 
 54.3s|  3100 |    52 |205385 |1622k|  26 |  18 | 330 | 529 | 127 | 330 | 222 | 174 | 397 |1169 | 1.114647e+04 |      --      |    Inf 
 55.2s|  3200 |    30 |209342 |1577k|  26 |   2 | 330 | 540 |  85 | 330 | 222 | 174 | 408 |1193 | 1.330085e+04 |      --      |    Inf 
 55.6s|  3300 |    10 |210954 |1491k|  26 |   - | 330 | 543 | 129 | 330 | 222 | 174 | 411 |1202 | 1.336319e+04 |      --      |    Inf 

SCIP Status        : problem is solved [infeasible]
Solving Time (sec) : 56.08
Solving Nodes      : 3380
Primal Bound       : +1.00000000000000e+20 (0 solutions)
Dual Bound         : +1.00000000000000e+20
Gap                : 0.00 %

primal solution:
================

no solution available

Statistics
==========

SCIP Status        : problem is solved [infeasible]
Solving Time       :      56.08
Original Problem   :
  Problem name     : labtel
  Variables        : 335 (170 binary, 0 integer, 0 implicit integer, 165 continuous)
  Constraints      : 142 initial, 142 maximal
Presolved Problem  :
  Problem name     : t_labtel
  Variables        : 330 (170 binary, 0 integer, 0 implicit integer, 160 continuous)
  Constraints      : 138 initial, 553 maximal
Presolvers         :       Time  FixedVars   AggrVars   ChgTypes  ChgBounds   AddHoles    DelCons   ChgSides   ChgCoefs
  trivial          :       0.00          0          0          0          0          0          0          0          0
  dualfix          :       0.00          0          0          0          0          0          0          0          0
  boundshift       :       0.00          0          0          0          0          0          0          0          0
  inttobinary      :       0.00          0          0          0          0          0          0          0          0
  implics          :       0.00          0          0          0          0          0          0          0          0
  probing          :       0.03          0          0          0          0          0          0          0          0
  knapsack         :       0.00          0          0          0          0          0          0          0          0
  setppc           :       0.00          0          0          0          0          0          0          0          0
  linear           :       0.01          0          5          0          4          0          4          3         40
  logicor          :       0.00          0          0          0          0          0          0          0          0
  bounddisjunction :       0.00          0          0          0          0          0          0          0          0
  root node        :          -          6          -          -          6          -          -          -          -
Constraints        :     Number  #Separate #Propagate    #EnfoLP    #EnfoPS    Cutoffs    DomReds       Cuts      Conss   Children
  integral         :          0          0          0       1742          0          5         69          0          0       3400
  knapsack         :          1         15       8343          0          0          1       1711          0          0          0
  setppc           :         40         15      10645          0          0         18      20881          0          0          0
  linear           :         97         15      10771          0          0        163      61604          1          0          0
  logicor          :          0+         0       3827          0          0         17        841          0          0          0
  bounddisjunction :          0+         0       2445          0          0          0        530          0          0          0
  countsols        :          0          0          0          0          0          0          0          0          0          0
Constraint Timings :  TotalTime   Separate  Propagate     EnfoLP     EnfoPS
  integral         :      13.10       0.00       0.00      13.10       0.00
  knapsack         :       0.03       0.01       0.02       0.00       0.00
  setppc           :       0.14       0.00       0.14       0.00       0.00
  linear           :       0.90       0.00       0.90       0.00       0.00
  logicor          :       0.07       0.00       0.07       0.00       0.00
  bounddisjunction :       0.02       0.00       0.02       0.00       0.00
  countsols        :       0.00       0.00       0.00       0.00       0.00
Propagators        :       Time      Calls    Cutoffs    DomReds
  rootredcost      :       0.00          0          0          0
  pseudoobj        :       0.12      10503          1          0
Conflict Analysis  :       Time      Calls    Success  Conflicts   Literals    Reconvs ReconvLits   LP Iters
  propagation      :       0.02        199        196        851       44.2         19       32.5          -
  infeasible LP    :       0.17       1494        101        638       35.1          2       34.5          0
  bound exceed. LP :       0.00          0          0          0        0.0          0        0.0          0
  strong branching :       0.00          0          0          0        0.0          0        0.0          0
  pseudo solution  :       0.00          0          0          0        0.0          0        0.0          -
  applied globally :          -          -          -        420       10.9          -          -          -
  applied locally  :          -          -          -          2       48.0          -          -          -
Separators         :       Time      Calls    Cutoffs    DomReds       Cuts      Conss
  cut pool         :       0.00         14          -          -         31          -    (maximal pool size: 300)
  redcost          :       0.03       1788          0         66          0          0
  impliedbounds    :       0.00         15          0          0          0          0
  intobj           :       0.00          0          0          0          0          0
  gomory           :       0.12         15          0          0          6          0
  strongcg         :       0.06         15          0          0          0          0
  cmir             :       0.93         10          0          0        281          0
  flowcover        :       1.64         10          0          0         34          0
  clique           :       0.01         15          0          0          0          0
  zerohalf         :       0.00          0          0          0          0          0
  mcf              :       0.00          0          0          0          0          0
Pricers            :       Time      Calls       Vars
  problem variables:       0.00          0          0
Branching Rules    :       Time      Calls    Cutoffs    DomReds       Cuts      Conss   Children
  relpscost        :      13.10       1742          5         69          0          0       3400
  pscost           :       0.00          0          0          0          0          0          0
  inference        :       0.00          0          0          0          0          0          0
  mostinf          :       0.00          0          0          0          0          0          0
  leastinf         :       0.00          0          0          0          0          0          0
  fullstrong       :       0.00          0          0          0          0          0          0
  allfullstrong    :       0.00          0          0          0          0          0          0
  random           :       0.00          0          0          0          0          0          0
Primal Heuristics  :       Time      Calls      Found
  LP solutions     :       0.00          -          0
  pseudo solutions :       0.00          -          0
  oneopt           :       0.00          0          0
  veclendiving     :       0.00          0          0
  objpscostdiving  :       0.00          0          0
  rootsoldiving    :       0.00          0          0
  linesearchdiving :       0.00          0          0
  guideddiving     :       0.00          0          0
  crossover        :       0.00          0          0
  coefdiving       :       0.01          1          0
  pscostdiving     :       0.01          1          0
  fracdiving       :       0.06          1          0
  feaspump         :       0.09          1          0
  simplerounding   :       0.02          0          0
  rounding         :       0.04        520          0
  shifting         :       0.19        142          0
  intshifting      :       0.01          1          0
  fixandinfer      :       0.00          0          0
  intdiving        :       0.00          0          0
  actconsdiving    :       0.00          0          0
  octane           :       0.00          0          0
  rens             :       2.21          1          0
  rins             :       0.00          0          0
  localbranching   :       0.00          0          0
  mutation         :       0.00          0          0
  dins             :       0.00          0          0
LP                 :       Time      Calls Iterations  Iter/call   Iter/sec
  primal LP        :       0.01          0          0       0.00          -
  dual LP          :      35.01       3639     211079      58.00    6029.11
  barrier LP       :       0.00          0          0       0.00          -
  diving/probing LP:       0.17         48       1352      28.17    7952.94
  strong branching :      13.08       1210     113101      93.47    8646.87
    (at root node) :          -         37       4831     130.57          -
  conflict analysis:       0.00          0          0       0.00          -
B&B Tree           :
  number of runs   :          1
  nodes            :       3380
  nodes (total)    :       3380
  nodes left       :          0
  max depth        :         26
  max depth (total):         26
  backtracks       :        676 (20.0%)
  delayed cutoffs  :         21
  repropagations   :        835 (6748 domain reductions, 13 cutoffs)
  avg switch length:       4.63
  switching time   :       0.50
Solution           :
  Solutions found  :          0 (0 improvements)
  Primal Bound     : infeasible
  Dual Bound       :          -
  Gap              :       0.00 %
  Root Dual Bound  : +5.66440773373088e+03
